db/data/1797413638757895921768105432540923428.z3.out
-------------------
2500.140702166
